CMPL model generation - running

CMPL version: 1.11.0
Authors: Thomas Schleiff, Mike Steglich
Distributed under the GPLv3 

create model instance ...
write model instance ...
CMPL model generation - finished

Solver - running


Welcome to IBM(R) ILOG(R) CPLEX(R) Interactive Optimizer 12.7.1.0
  with Simplex, Mixed Integer & Barrier Optimizers
5725-A06 5725-A29 5724-Y48 5724-Y49 5724-Y54 5724-Y55 5655-Y21
Copyright IBM Corp. 1988, 2017.  All Rights Reserved.

Type 'help' for a list of available commands.
Type 'help' followed by a command name for more
information on commands.

CPLEX> Specified objective sense: MINIMIZE
Selected objective  name:  line[1]
Selected RHS        name:  RHS
Selected bound      name:  BOUND
Problem '/tmp/cmpl.T23542.mps' read.
Read time = 0.05 sec. (8.16 ticks)
CPLEX> CPXPARAM_Read_APIEncoding                        "UTF-8"
Tried aggregator 3 times.
MIP Presolve eliminated 19313 rows and 30829 columns.
MIP Presolve modified 340 coefficients.
Aggregator did 580 substitutions.
Reduced MIP has 2462 rows, 3184 columns, and 9308 nonzeros.
Reduced MIP has 3016 binaries, 0 generals, 0 SOSs, and 0 indicators.
Presolve time = 0.05 sec. (41.64 ticks)
Found incumbent of value 342.405030 after 0.09 sec. (58.43 ticks)
Probing fixed 6 vars, tightened 0 bounds.
Probing time = 0.01 sec. (4.05 ticks)
Tried aggregator 1 time.
MIP Presolve eliminated 0 rows and 6 columns.
MIP Presolve modified 27 coefficients.
Reduced MIP has 2462 rows, 3178 columns, and 9296 nonzeros.
Reduced MIP has 3178 binaries, 0 generals, 0 SOSs, and 0 indicators.
Presolve time = 0.01 sec. (7.99 ticks)
Probing time = 0.01 sec. (2.66 ticks)
Clique table members: 5318.
MIP emphasis: balance optimality and feasibility.
MIP search method: dynamic search.
Parallel mode: none, using 1 thread.
Root relaxation solution time = 0.01 sec. (4.23 ticks)

        Nodes                                         Cuts/
   Node  Left     Objective  IInf  Best Integer    Best Bound    ItCnt     Gap

*     0+    0                          342.4050      -52.3352           115.28%
      0     0       31.6691    25      342.4050       31.6691       76   90.75%
*     0+    0                           79.3574       31.6691            60.09%
*     0+    0                           32.3834       31.6691             2.21%
      0     0        cutoff             32.3834                     79    0.00%
Elapsed time = 0.16 sec. (105.49 ticks, tree = 0.01 MB, solutions = 3)

Clique cuts applied:  3
Cover cuts applied:  2
Gomory fractional cuts applied:  1

Root node processing (before b&c):
  Real time             =    0.17 sec. (106.98 ticks)
Sequential b&c:
  Real time             =    0.00 sec. (0.00 ticks)
                          ------------
Total (root+branch&cut) =    0.17 sec. (106.98 ticks)

Solution pool: 3 solutions saved.

MIP - Integer optimal solution:  Objective =  3.2383363000e+01
Solution time =    0.17 sec.  Iterations = 79  Nodes = 0
Deterministic time = 107.08 ticks  (647.18 ticks/sec)

CPLEX> Incumbent solution written to file '/tmp/cmpl.T23542.gsol'.
CPLEX> 
CMPL: Time used for model generation: 0 seconds
CMPL: Time used for solving the model: 1 seconds


Solution written to ASCII file: results/output_generated_conf_0.1/2017-02-06-4/fair-nonlinear.sol

Solver - finished
